Traveling Salesman Problem/TSP_generados/Aleatorio1620391102_14.tsp
NAME: Aleatorio1620391102_14.tsp
COMMENT: Randomly generated scenario
TYPE: TSP
DIMENSION: 14
EDGE_WEIGHT_TYPE: ATT
NODE_COORD_SECTION
1 35.17 17.94
2 43.58 14.0
3 4.49 47.85
4 42.17 11.05
5 11.76 16.99
6 9.01 46.52
7 29.18 14.31
8 2.01 14.84
9 49.82 9.55
10 29.9 22.84
11 35.9 20.79
12 31.77 44.93
13 16.05 37.82
14 0.48 1.96
