Traveling Salesman Problem/TSP_generados/Aleatorio1620391102_14.opt.tour
NAME: Aleatorio1620391102_14.opt.tour
COMMENT: Optimal solution for Aleatorio1620391102_14 (185.23830555267452)
TYPE: TOUR
DIMENSION: 14
TOUR_SECTION
1 2 9 4 7 5 14 8 3 6 13 12 10 11
-1
EOF
